&GLOBAL
  PRINT_LEVEL LOW
   PROJECT ch3f
  RUN_TYPE MD
SEED=931286
&END GLOBAL

&MOTION

  &MD
   COMVEL_TOL 0.000005
   ENSEMBLE NVT
   STEPS 100000000 
   TIMESTEP 0.5
   TEMPERATURE 1200.0

    &THERMOSTAT
      TYPE CSVR
      &CSVR
        TIMECON 100.
      &END CSVR
    &END THERMOSTAT
  &END MD
 
  &FREE_ENERGY
    &METADYN
       USE_PLUMED .TRUE.
       PLUMED_INPUT_FILE ./plumed.dat
    &END METADYN
  &END FREE_ENERGY

  &PRINT
   &VELOCITIES
    FORMAT XYZ
   &END VELOCITIES
   &RESTART
    &EACH
     MD 10000000
    &END EACH
   &END RESTART
  &END PRINT


&END MOTION



&FORCE_EVAL
  METHOD Quickstep
  &DFT
   CHARGE -1
    &QS
      METHOD PM6
      !METHOD AM1
      &SE
      &END SE
    &END QS
    &SCF
      !SCF_GUESS ATOMIC
      EPS_SCF 1.0E-5
      MAX_SCF 50
       &OUTER_SCF
          EPS_SCF 1.0E-5
          MAX_SCF 500
       &END
    &END SCF
  &END DFT


  &SUBSYS
    &CELL
      ABC 10.0 10.0 10.0
      PERIODIC NONE
    &END CELL
    &TOPOLOGY
      COORD_FILE_NAME sn2_reactant.xyz
      COORD_FILE_FORMAT xyz
    &END TOPOLOGY
   &END SUBSYS

&END FORCE_EVAL

